(assert (forall ((pkt_0_4_6_0  Int  )(state_group_0_state_0_5_7_0  Int  )(state_group_0_state_1_6_8_0  Int  )) (let ((_n0 state_group_0_state_1_6_8_0 ))
(let ((_n1 state_group_0_state_0_5_7_0 ))
(let ((_n2 true ))
(let ((_n3 (+   _n1   (ite  _n2  1 0) ) ))
(let ((_n4 (ite (=  _n0  0)  _n3   _n1  ) ))
(let ((_n5 999 ))
(let ((_n6 pkt_0_4_6_0 ))
(let ((_n7 (+   _n0   _n6 ) ))
(let ((_n8 (<   _n7   _n5 ) ))
(let ((_n9 false ))
(let ((_n10 (ite  _n8   (ite  _n9  1 0)   _n6  ) ))
(let ((_n11 998 ))
(let ((_n12 (<   _n11   _n10 ) ))
(let ((_n13 (ite  _n8   _n9   _n12  ) ))
(let ((_n14 (not  _n13 ) ))
(let ((_n15 (or   _n14   _n8 ) ))
(let ((_n16 (ite  _n15   (ite  _n9  1 0)   _n6  ) ))
(let ((_n17 (-  _n16 )))
(let ((_n18 (ite  _n15   (ite  _n9  1 0)   _n0  ) ))
(let ((_n19 (+   _n18   _n17 ) ))
(let ((_n20 (=   _n19   (ite  _n2  1 0) ) ))
(let ((_n21 (not  _n20 ) ))
(let ((_n22 (not  _n15 ) ))
(let ((_n23 (and   _n22   _n21 ) ))
(let ((_n24 (or   _n23   _n15 ) ))
(let ((_n25 1000 ))
(let ((_n26 (ite  _n24   (ite  _n9  1 0)   _n25  ) ))
(let ((_n27 4 ))
(let ((_n28 (ite  _n24   (ite  _n9  1 0)   _n27  ) ))
(let ((_n29 (+   _n28   _n26 ) ))
(let ((_n30 (ite  _n24   (ite  _n9  1 0)   _n29  ) ))
(let ((_n31 (+   _n1   _n30 ) ))
(let ((_n32 (not  _n23 ) ))
(let ((_n33 (or   _n32   _n15 ) ))
(let ((_n34 (not  _n33 ) ))
(let ((_n35 (+   _n1   (ite  _n34  1 0) ) ))
(let ((_n36 (ite (=  (ite  _n23  1 0)  1)  _n35   _n31  ) ))
(let ((_n37 (ite (=  (ite  _n13  1 0)  1)  _n36   _n1  ) ))
(let ((_n38 (ite  _n8   _n0   (ite  _n9  1 0)  ) ))
(let ((_n39 (<   _n38   (ite  _n2  1 0) ) ))
(let ((_n40 (and   _n8   _n39 ) ))
(let ((_n41 (and   _n40   _n8 ) ))
(let ((_n42 3 ))
(let ((_n43 (ite  _n41   _n42   (ite  _n9  1 0)  ) ))
(let ((_n44 (-  _n43 )))
(let ((_n45 (ite  _n41   _n27   (ite  _n9  1 0)  ) ))
(let ((_n46 (+   _n45   _n44 ) ))
(let ((_n47 (ite  _n41   _n46   (ite  _n9  1 0)  ) ))
(let ((_n48 (+   _n1   _n47 ) ))
(let ((_n49 (ite (=  (ite  _n40  1 0)  1)  _n48   _n1  ) ))
(let ((_n50 (ite (=  (ite  _n8  1 0)  1)  _n49   _n37  ) ))
(let ((_n51 (=   _n50   _n4 ) ))
(let ((_n53 (ite (=  _n1  999)  (ite  _n2  1 0)   _n0  ) ))
(let ((_n54 (ite (=  _n0  0)  _n53   _n0  ) ))
(let ((_n55 997 ))
(let ((_n56 (ite  _n24   (ite  _n9  1 0)   _n55  ) ))
(let ((_n57 (+   _n56   _n28 ) ))
(let ((_n58 (ite  _n24   (ite  _n9  1 0)   _n57  ) ))
(let ((_n59 (+   _n0   _n58 ) ))
(let ((_n60 (+   _n0   (ite  _n34  1 0) ) ))
(let ((_n61 (ite (=  (ite  _n23  1 0)  1)  _n60   _n59  ) ))
(let ((_n62 (ite (=  (ite  _n13  1 0)  1)  _n61   _n0  ) ))
(let ((_n63 (ite (=  (ite  _n8  1 0)  1)  _n0   _n62  ) ))
(let ((_n64 (=   _n63   _n54 ) ))
(let ((_n66 (ite (=  _n6  0)  _n6   (ite  _n9  1 0)  ) ))
(let ((_n67 (ite (=  _n6  0)  _n66   _n6  ) ))
(let ((_n68 (=   _n67   _n6 ) ))
(implies  (and (and (>= state_group_0_state_1_6_8_0 0) (< state_group_0_state_1_6_8_0 1024 ))  (and (and (>= state_group_0_state_0_5_7_0 0) (< state_group_0_state_0_5_7_0 1024 ))  (and (>= pkt_0_4_6_0 0) (< pkt_0_4_6_0 1024 )) ) )   (and  _n51  _n64  _n68 )  ))))))))))))))))))))))))))))))))))))))))))))))))))))))))))))))))))))))
(check-sat)
(get-model)
(exit)